c description: Tseitin formula on Random 4-regular graph of 122 vertices, with odd charge
c generator: CNFgen (0.9.2)
c copyright: (C) 2012-2022 Massimo Lauria <massimo.lauria@uniroma1.it>
c url: https://massimolauria.net/cnfgen
c command line: cnfgen tseitin 122 4
c
p cnf 244 976
1 2 3 4 0
1 2 -3 -4 0
1 -2 3 -4 0
1 -2 -3 4 0
-1 2 3 -4 0
-1 2 -3 4 0
-1 -2 3 4 0
-1 -2 -3 -4 0
5 6 7 -8 0
5 6 -7 8 0
5 -6 7 8 0
5 -6 -7 -8 0
-5 6 7 8 0
-5 6 -7 -8 0
-5 -6 7 -8 0
-5 -6 -7 8 0
9 10 11 -12 0
9 10 -11 12 0
9 -10 11 12 0
9 -10 -11 -12 0
-9 10 11 12 0
-9 10 -11 -12 0
-9 -10 11 -12 0
-9 -10 -11 12 0
13 14 15 16 0
13 14 -15 -16 0
13 -14 15 -16 0
13 -14 -15 16 0
-13 14 15 -16 0
-13 14 -15 16 0
-13 -14 15 16 0
-13 -14 -15 -16 0
13 17 18 -19 0
13 17 -18 19 0
13 -17 18 19 0
13 -17 -18 -19 0
-13 17 18 19 0
-13 17 -18 -19 0
-13 -17 18 -19 0
-13 -17 -18 19 0
20 21 22 23 0
20 21 -22 -23 0
20 -21 22 -23 0
20 -21 -22 23 0
-20 21 22 -23 0
-20 21 -22 23 0
-20 -21 22 23 0
-20 -21 -22 -23 0
24 25 26 27 0
24 25 -26 -27 0
24 -25 26 -27 0
24 -25 -26 27 0
-24 25 26 -27 0
-24 25 -26 27 0
-24 -25 26 27 0
-24 -25 -26 -27 0
28 29 30 31 0
28 29 -30 -31 0
28 -29 30 -31 0
28 -29 -30 31 0
-28 29 30 -31 0
-28 29 -30 31 0
-28 -29 30 31 0
-28 -29 -30 -31 0
28 32 33 34 0
28 32 -33 -34 0
28 -32 33 -34 0
28 -32 -33 34 0
-28 32 33 -34 0
-28 32 -33 34 0
-28 -32 33 34 0
-28 -32 -33 -34 0
35 36 37 -38 0
35 36 -37 38 0
35 -36 37 38 0
35 -36 -37 -38 0
-35 36 37 38 0
-35 36 -37 -38 0
-35 -36 37 -38 0
-35 -36 -37 38 0
14 39 40 -41 0
14 39 -40 41 0
14 -39 40 41 0
14 -39 -40 -41 0
-14 39 40 41 0
-14 39 -40 -41 0
-14 -39 40 -41 0
-14 -39 -40 41 0
42 43 44 -45 0
42 43 -44 45 0
42 -43 44 45 0
42 -43 -44 -45 0
-42 43 44 45 0
-42 43 -44 -45 0
-42 -43 44 -45 0
-42 -43 -44 45 0
42 46 47 48 0
42 46 -47 -48 0
42 -46 47 -48 0
42 -46 -47 48 0
-42 46 47 -48 0
-42 46 -47 48 0
-42 -46 47 48 0
-42 -46 -47 -48 0
49 50 51 52 0
49 50 -51 -52 0
49 -50 51 -52 0
49 -50 -51 52 0
-49 50 51 -52 0
-49 50 -51 52 0
-49 -50 51 52 0
-49 -50 -51 -52 0
43 53 54 -55 0
43 53 -54 55 0
43 -53 54 55 0
43 -53 -54 -55 0
-43 53 54 55 0
-43 53 -54 -55 0
-43 -53 54 -55 0
-43 -53 -54 55 0
9 32 56 -57 0
9 32 -56 57 0
9 -32 56 57 0
9 -32 -56 -57 0
-9 32 56 57 0
-9 32 -56 -57 0
-9 -32 56 -57 0
-9 -32 -56 57 0
58 59 60 -61 0
58 59 -60 61 0
58 -59 60 61 0
58 -59 -60 -61 0
-58 59 60 61 0
-58 59 -60 -61 0
-58 -59 60 -61 0
-58 -59 -60 61 0
62 63 64 65 0
62 63 -64 -65 0
62 -63 64 -65 0
62 -63 -64 65 0
-62 63 64 -65 0
-62 63 -64 65 0
-62 -63 64 65 0
-62 -63 -64 -65 0
15 56 58 66 0
15 56 -58 -66 0
15 -56 58 -66 0
15 -56 -58 66 0
-15 56 58 -66 0
-15 56 -58 66 0
-15 -56 58 66 0
-15 -56 -58 -66 0
1 46 67 -68 0
1 46 -67 68 0
1 -46 67 68 0
1 -46 -67 -68 0
-1 46 67 68 0
-1 46 -67 -68 0
-1 -46 67 -68 0
-1 -46 -67 68 0
69 70 71 -72 0
69 70 -71 72 0
69 -70 71 72 0
69 -70 -71 -72 0
-69 70 71 72 0
-69 70 -71 -72 0
-69 -70 71 -72 0
-69 -70 -71 72 0
20 59 73 74 0
20 59 -73 -74 0
20 -59 73 -74 0
20 -59 -73 74 0
-20 59 73 -74 0
-20 59 -73 74 0
-20 -59 73 74 0
-20 -59 -73 -74 0
75 76 77 78 0
75 76 -77 -78 0
75 -76 77 -78 0
75 -76 -77 78 0
-75 76 77 -78 0
-75 76 -77 78 0
-75 -76 77 78 0
-75 -76 -77 -78 0
62 79 80 81 0
62 79 -80 -81 0
62 -79 80 -81 0
62 -79 -80 81 0
-62 79 80 -81 0
-62 79 -80 81 0
-62 -79 80 81 0
-62 -79 -80 -81 0
47 82 83 84 0
47 82 -83 -84 0
47 -82 83 -84 0
47 -82 -83 84 0
-47 82 83 -84 0
-47 82 -83 84 0
-47 -82 83 84 0
-47 -82 -83 -84 0
85 86 87 -88 0
85 86 -87 88 0
85 -86 87 88 0
85 -86 -87 -88 0
-85 86 87 88 0
-85 86 -87 -88 0
-85 -86 87 -88 0
-85 -86 -87 88 0
89 90 91 -92 0
89 90 -91 92 0
89 -90 91 92 0
89 -90 -91 -92 0
-89 90 91 92 0
-89 90 -91 -92 0
-89 -90 91 -92 0
-89 -90 -91 92 0
93 94 95 -96 0
93 94 -95 96 0
93 -94 95 96 0
93 -94 -95 -96 0
-93 94 95 96 0
-93 94 -95 -96 0
-93 -94 95 -96 0
-93 -94 -95 96 0
97 98 99 100 0
97 98 -99 -100 0
97 -98 99 -100 0
97 -98 -99 100 0
-97 98 99 -100 0
-97 98 -99 100 0
-97 -98 99 100 0
-97 -98 -99 -100 0
2 101 102 -103 0
2 101 -102 103 0
2 -101 102 103 0
2 -101 -102 -103 0
-2 101 102 103 0
-2 101 -102 -103 0
-2 -101 102 -103 0
-2 -101 -102 103 0
53 73 79 104 0
53 73 -79 -104 0
53 -73 79 -104 0
53 -73 -79 104 0
-53 73 79 -104 0
-53 73 -79 104 0
-53 -73 79 104 0
-53 -73 -79 -104 0
5 105 106 -107 0
5 105 -106 107 0
5 -105 106 107 0
5 -105 -106 -107 0
-5 105 106 107 0
-5 105 -106 -107 0
-5 -105 106 -107 0
-5 -105 -106 107 0
82 89 108 109 0
82 89 -108 -109 0
82 -89 108 -109 0
82 -89 -108 109 0
-82 89 108 -109 0
-82 89 -108 109 0
-82 -89 108 109 0
-82 -89 -108 -109 0
10 110 111 -112 0
10 110 -111 112 0
10 -110 111 112 0
10 -110 -111 -112 0
-10 110 111 112 0
-10 110 -111 -112 0
-10 -110 111 -112 0
-10 -110 -111 112 0
49 105 113 114 0
49 105 -113 -114 0
49 -105 113 -114 0
49 -105 -113 114 0
-49 105 113 -114 0
-49 105 -113 114 0
-49 -105 113 114 0
-49 -105 -113 -114 0
29 115 116 -117 0
29 115 -116 117 0
29 -115 116 117 0
29 -115 -116 -117 0
-29 115 116 117 0
-29 115 -116 -117 0
-29 -115 116 -117 0
-29 -115 -116 117 0
118 119 120 -121 0
118 119 -120 121 0
118 -119 120 121 0
118 -119 -120 -121 0
-118 119 120 121 0
-118 119 -120 -121 0
-118 -119 120 -121 0
-118 -119 -120 121 0
104 122 123 -124 0
104 122 -123 124 0
104 -122 123 124 0
104 -122 -123 -124 0
-104 122 123 124 0
-104 122 -123 -124 0
-104 -122 123 -124 0
-104 -122 -123 124 0
101 125 126 127 0
101 125 -126 -127 0
101 -125 126 -127 0
101 -125 -126 127 0
-101 125 126 -127 0
-101 125 -126 127 0
-101 -125 126 127 0
-101 -125 -126 -127 0
80 90 128 -129 0
80 90 -128 129 0
80 -90 128 129 0
80 -90 -128 -129 0
-80 90 128 129 0
-80 90 -128 -129 0
-80 -90 128 -129 0
-80 -90 -128 129 0
24 50 128 130 0
24 50 -128 -130 0
24 -50 128 -130 0
24 -50 -128 130 0
-24 50 128 -130 0
-24 50 -128 130 0
-24 -50 128 130 0
-24 -50 -128 -130 0
30 91 131 -132 0
30 91 -131 132 0
30 -91 131 132 0
30 -91 -131 -132 0
-30 91 131 132 0
-30 91 -131 -132 0
-30 -91 131 -132 0
-30 -91 -131 132 0
133 134 135 136 0
133 134 -135 -136 0
133 -134 135 -136 0
133 -134 -135 136 0
-133 134 135 -136 0
-133 134 -135 136 0
-133 -134 135 136 0
-133 -134 -135 -136 0
6 137 138 -139 0
6 137 -138 139 0
6 -137 138 139 0
6 -137 -138 -139 0
-6 137 138 139 0
-6 137 -138 -139 0
-6 -137 138 -139 0
-6 -137 -138 139 0
129 140 141 -142 0
129 140 -141 142 0
129 -140 141 142 0
129 -140 -141 -142 0
-129 140 141 142 0
-129 140 -141 -142 0
-129 -140 141 -142 0
-129 -140 -141 142 0
143 144 145 146 0
143 144 -145 -146 0
143 -144 145 -146 0
143 -144 -145 146 0
-143 144 145 -146 0
-143 144 -145 146 0
-143 -144 145 146 0
-143 -144 -145 -146 0
35 147 148 -149 0
35 147 -148 149 0
35 -147 148 149 0
35 -147 -148 -149 0
-35 147 148 149 0
-35 147 -148 -149 0
-35 -147 148 -149 0
-35 -147 -148 149 0
150 151 152 153 0
150 151 -152 -153 0
150 -151 152 -153 0
150 -151 -152 153 0
-150 151 152 -153 0
-150 151 -152 153 0
-150 -151 152 153 0
-150 -151 -152 -153 0
154 155 156 -157 0
154 155 -156 157 0
154 -155 156 157 0
154 -155 -156 -157 0
-154 155 156 157 0
-154 155 -156 -157 0
-154 -155 156 -157 0
-154 -155 -156 157 0
36 51 158 159 0
36 51 -158 -159 0
36 -51 158 -159 0
36 -51 -158 159 0
-36 51 158 -159 0
-36 51 -158 159 0
-36 -51 158 159 0
-36 -51 -158 -159 0
122 160 161 162 0
122 160 -161 -162 0
122 -160 161 -162 0
122 -160 -161 162 0
-122 160 161 -162 0
-122 160 -161 162 0
-122 -160 161 162 0
-122 -160 -161 -162 0
137 163 164 165 0
137 163 -164 -165 0
137 -163 164 -165 0
137 -163 -164 165 0
-137 163 164 -165 0
-137 163 -164 165 0
-137 -163 164 165 0
-137 -163 -164 -165 0
75 93 125 -166 0
75 93 -125 166 0
75 -93 125 166 0
75 -93 -125 -166 0
-75 93 125 166 0
-75 93 -125 -166 0
-75 -93 125 -166 0
-75 -93 -125 166 0
130 167 168 169 0
130 167 -168 -169 0
130 -167 168 -169 0
130 -167 -168 169 0
-130 167 168 -169 0
-130 167 -168 169 0
-130 -167 168 169 0
-130 -167 -168 -169 0
17 106 170 -171 0
17 106 -170 171 0
17 -106 170 171 0
17 -106 -170 -171 0
-17 106 170 171 0
-17 106 -170 -171 0
-17 -106 170 -171 0
-17 -106 -170 171 0
97 172 173 174 0
97 172 -173 -174 0
97 -172 173 -174 0
97 -172 -173 174 0
-97 172 173 -174 0
-97 172 -173 174 0
-97 -172 173 174 0
-97 -172 -173 -174 0
172 175 176 -177 0
172 175 -176 177 0
172 -175 176 177 0
172 -175 -176 -177 0
-172 175 176 177 0
-172 175 -176 -177 0
-172 -175 176 -177 0
-172 -175 -176 177 0
110 173 178 179 0
110 173 -178 -179 0
110 -173 178 -179 0
110 -173 -178 179 0
-110 173 178 -179 0
-110 173 -178 179 0
-110 -173 178 179 0
-110 -173 -178 -179 0
133 180 181 182 0
133 180 -181 -182 0
133 -180 181 -182 0
133 -180 -181 182 0
-133 180 181 -182 0
-133 180 -181 182 0
-133 -180 181 182 0
-133 -180 -181 -182 0
180 183 184 185 0
180 183 -184 -185 0
180 -183 184 -185 0
180 -183 -184 185 0
-180 183 184 -185 0
-180 183 -184 185 0
-180 -183 184 185 0
-180 -183 -184 -185 0
186 187 188 189 0
186 187 -188 -189 0
186 -187 188 -189 0
186 -187 -188 189 0
-186 187 188 -189 0
-186 187 -188 189 0
-186 -187 188 189 0
-186 -187 -188 -189 0
7 160 170 -190 0
7 160 -170 190 0
7 -160 170 190 0
7 -160 -170 -190 0
-7 160 170 190 0
-7 160 -170 -190 0
-7 -160 170 -190 0
-7 -160 -170 190 0
175 191 192 -193 0
175 191 -192 193 0
175 -191 192 193 0
175 -191 -192 -193 0
-175 191 192 193 0
-175 191 -192 -193 0
-175 -191 192 -193 0
-175 -191 -192 193 0
57 147 194 195 0
57 147 -194 -195 0
57 -147 194 -195 0
57 -147 -194 195 0
-57 147 194 -195 0
-57 147 -194 195 0
-57 -147 194 195 0
-57 -147 -194 -195 0
111 143 196 197 0
111 143 -196 -197 0
111 -143 196 -197 0
111 -143 -196 197 0
-111 143 196 -197 0
-111 143 -196 197 0
-111 -143 196 197 0
-111 -143 -196 -197 0
74 198 199 -200 0
74 198 -199 200 0
74 -198 199 200 0
74 -198 -199 -200 0
-74 198 199 200 0
-74 198 -199 -200 0
-74 -198 199 -200 0
-74 -198 -199 200 0
16 167 201 202 0
16 167 -201 -202 0
16 -167 201 -202 0
16 -167 -201 202 0
-16 167 201 -202 0
-16 167 -201 202 0
-16 -167 201 202 0
-16 -167 -201 -202 0
131 178 203 204 0
131 178 -203 -204 0
131 -178 203 -204 0
131 -178 -203 204 0
-131 178 203 -204 0
-131 178 -203 204 0
-131 -178 203 204 0
-131 -178 -203 -204 0
11 205 206 207 0
11 205 -206 -207 0
11 -205 206 -207 0
11 -205 -206 207 0
-11 205 206 -207 0
-11 205 -206 207 0
-11 -205 206 207 0
-11 -205 -206 -207 0
39 85 138 -208 0
39 85 -138 208 0
39 -85 138 208 0
39 -85 -138 -208 0
-39 85 138 208 0
-39 85 -138 -208 0
-39 -85 138 -208 0
-39 -85 -138 208 0
40 67 209 -210 0
40 67 -209 210 0
40 -67 209 210 0
40 -67 -209 -210 0
-40 67 209 210 0
-40 67 -209 -210 0
-40 -67 209 -210 0
-40 -67 -209 210 0
37 69 186 -211 0
37 69 -186 211 0
37 -69 186 211 0
37 -69 -186 -211 0
-37 69 186 211 0
-37 69 -186 -211 0
-37 -69 186 -211 0
-37 -69 -186 211 0
181 201 212 213 0
181 201 -212 -213 0
181 -201 212 -213 0
181 -201 -212 213 0
-181 201 212 -213 0
-181 201 -212 213 0
-181 -201 212 213 0
-181 -201 -212 -213 0
107 150 214 -215 0
107 150 -214 215 0
107 -150 214 215 0
107 -150 -214 -215 0
-107 150 214 215 0
-107 150 -214 -215 0
-107 -150 214 -215 0
-107 -150 -214 215 0
83 92 140 216 0
83 92 -140 -216 0
83 -92 140 -216 0
83 -92 -140 216 0
-83 92 140 -216 0
-83 92 -140 216 0
-83 -92 140 216 0
-83 -92 -140 -216 0
194 217 218 -219 0
194 217 -218 219 0
194 -217 218 219 0
194 -217 -218 -219 0
-194 217 218 219 0
-194 217 -218 -219 0
-194 -217 218 -219 0
-194 -217 -218 219 0
84 115 220 -221 0
84 115 -220 221 0
84 -115 220 221 0
84 -115 -220 -221 0
-84 115 220 221 0
-84 115 -220 -221 0
-84 -115 220 -221 0
-84 -115 -220 221 0
66 151 212 222 0
66 151 -212 -222 0
66 -151 212 -222 0
66 -151 -212 222 0
-66 151 212 -222 0
-66 151 -212 222 0
-66 -151 212 222 0
-66 -151 -212 -222 0
70 118 183 -223 0
70 118 -183 223 0
70 -118 183 223 0
70 -118 -183 -223 0
-70 118 183 223 0
-70 118 -183 -223 0
-70 -118 183 -223 0
-70 -118 -183 223 0
25 63 113 -184 0
25 63 -113 184 0
25 -63 113 184 0
25 -63 -113 -184 0
-25 63 113 184 0
-25 63 -113 -184 0
-25 -63 113 -184 0
-25 -63 -113 184 0
112 144 224 225 0
112 144 -224 -225 0
112 -144 224 -225 0
112 -144 -224 225 0
-112 144 224 -225 0
-112 144 -224 225 0
-112 -144 224 225 0
-112 -144 -224 -225 0
176 224 226 227 0
176 224 -226 -227 0
176 -224 226 -227 0
176 -224 -226 227 0
-176 224 226 -227 0
-176 224 -226 227 0
-176 -224 226 227 0
-176 -224 -226 -227 0
3 209 211 217 0
3 209 -211 -217 0
3 -209 211 -217 0
3 -209 -211 217 0
-3 209 211 -217 0
-3 209 -211 217 0
-3 -209 211 217 0
-3 -209 -211 -217 0
116 228 229 230 0
116 228 -229 -230 0
116 -228 229 -230 0
116 -228 -229 230 0
-116 228 229 -230 0
-116 228 -229 230 0
-116 -228 229 230 0
-116 -228 -229 -230 0
154 191 205 -226 0
154 191 -205 226 0
154 -191 205 226 0
154 -191 -205 -226 0
-154 191 205 226 0
-154 191 -205 -226 0
-154 -191 205 -226 0
-154 -191 -205 226 0
8 68 148 216 0
8 68 -148 -216 0
8 -68 148 -216 0
8 -68 -148 216 0
-8 68 148 -216 0
-8 68 -148 216 0
-8 -68 148 216 0
-8 -68 -148 -216 0
54 108 218 -231 0
54 108 -218 231 0
54 -108 218 231 0
54 -108 -218 -231 0
-54 108 218 231 0
-54 108 -218 -231 0
-54 -108 218 -231 0
-54 -108 -218 231 0
98 171 232 -233 0
98 171 -232 233 0
98 -171 232 233 0
98 -171 -232 -233 0
-98 171 232 233 0
-98 171 -232 -233 0
-98 -171 232 -233 0
-98 -171 -232 233 0
31 55 123 134 0
31 55 -123 -134 0
31 -55 123 -134 0
31 -55 -123 134 0
-31 55 123 -134 0
-31 55 -123 134 0
-31 -55 123 134 0
-31 -55 -123 -134 0
126 158 163 -187 0
126 158 -163 187 0
126 -158 163 187 0
126 -158 -163 -187 0
-126 158 163 187 0
-126 158 -163 -187 0
-126 -158 163 -187 0
-126 -158 -163 187 0
18 168 177 -203 0
18 168 -177 203 0
18 -168 177 203 0
18 -168 -177 -203 0
-18 168 177 203 0
-18 168 -177 -203 0
-18 -168 177 -203 0
-18 -168 -177 203 0
60 174 190 234 0
60 174 -190 -234 0
60 -174 190 -234 0
60 -174 -190 234 0
-60 174 190 -234 0
-60 174 -190 234 0
-60 -174 190 234 0
-60 -174 -190 -234 0
99 196 202 228 0
99 196 -202 -228 0
99 -196 202 -228 0
99 -196 -202 228 0
-99 196 202 -228 0
-99 196 -202 228 0
-99 -196 202 228 0
-99 -196 -202 -228 0
21 198 220 -235 0
21 198 -220 235 0
21 -198 220 235 0
21 -198 -220 -235 0
-21 198 220 235 0
-21 198 -220 -235 0
-21 -198 220 -235 0
-21 -198 -220 235 0
22 204 236 -237 0
22 204 -236 237 0
22 -204 236 237 0
22 -204 -236 -237 0
-22 204 236 237 0
-22 204 -236 -237 0
-22 -204 236 -237 0
-22 -204 -236 237 0
26 152 197 -225 0
26 152 -197 225 0
26 -152 197 225 0
26 -152 -197 -225 0
-26 152 197 225 0
-26 152 -197 -225 0
-26 -152 197 -225 0
-26 -152 -197 225 0
27 192 219 231 0
27 192 -219 -231 0
27 -192 219 -231 0
27 -192 -219 231 0
-27 192 219 -231 0
-27 192 -219 231 0
-27 -192 219 231 0
-27 -192 -219 -231 0
38 41 76 222 0
38 41 -76 -222 0
38 -41 76 -222 0
38 -41 -76 222 0
-38 41 76 -222 0
-38 41 -76 222 0
-38 -41 76 222 0
-38 -41 -76 -222 0
19 149 234 -238 0
19 149 -234 238 0
19 -149 234 238 0
19 -149 -234 -238 0
-19 149 234 238 0
-19 149 -234 -238 0
-19 -149 234 -238 0
-19 -149 -234 238 0
94 166 210 239 0
94 166 -210 -239 0
94 -166 210 -239 0
94 -166 -210 239 0
-94 166 210 -239 0
-94 166 -210 239 0
-94 -166 210 239 0
-94 -166 -210 -239 0
95 119 141 -239 0
95 119 -141 239 0
95 -119 141 239 0
95 -119 -141 -239 0
-95 119 141 239 0
-95 119 -141 -239 0
-95 -119 141 -239 0
-95 -119 -141 239 0
52 114 117 145 0
52 114 -117 -145 0
52 -114 117 -145 0
52 -114 -117 145 0
-52 114 117 -145 0
-52 114 -117 145 0
-52 -114 117 145 0
-52 -114 -117 -145 0
120 164 232 -238 0
120 164 -232 238 0
120 -164 232 238 0
120 -164 -232 -238 0
-120 164 232 238 0
-120 164 -232 -238 0
-120 -164 232 -238 0
-120 -164 -232 238 0
61 81 127 -206 0
61 81 -127 206 0
61 -81 127 206 0
61 -81 -127 -206 0
-61 81 127 206 0
-61 81 -127 -206 0
-61 -81 127 -206 0
-61 -81 -127 206 0
44 155 214 -240 0
44 155 -214 240 0
44 -155 214 240 0
44 -155 -214 -240 0
-44 155 214 240 0
-44 155 -214 -240 0
-44 -155 214 -240 0
-44 -155 -214 240 0
77 86 135 221 0
77 86 -135 -221 0
77 -86 135 -221 0
77 -86 -135 221 0
-77 86 135 -221 0
-77 86 -135 221 0
-77 -86 135 221 0
-77 -86 -135 -221 0
100 185 207 -233 0
100 185 -207 233 0
100 -185 207 233 0
100 -185 -207 -233 0
-100 185 207 233 0
-100 185 -207 -233 0
-100 -185 207 -233 0
-100 -185 -207 233 0
4 33 78 153 0
4 33 -78 -153 0
4 -33 78 -153 0
4 -33 -78 153 0
-4 33 78 -153 0
-4 33 -78 153 0
-4 -33 78 153 0
-4 -33 -78 -153 0
12 109 139 241 0
12 109 -139 -241 0
12 -109 139 -241 0
12 -109 -139 241 0
-12 109 139 -241 0
-12 109 -139 241 0
-12 -109 139 241 0
-12 -109 -139 -241 0
156 182 188 235 0
156 182 -188 -235 0
156 -182 188 -235 0
156 -182 -188 235 0
-156 182 188 -235 0
-156 182 -188 235 0
-156 -182 188 235 0
-156 -182 -188 -235 0
87 179 236 242 0
87 179 -236 -242 0
87 -179 236 -242 0
87 -179 -236 242 0
-87 179 236 -242 0
-87 179 -236 242 0
-87 -179 236 242 0
-87 -179 -236 -242 0
64 121 124 208 0
64 121 -124 -208 0
64 -121 124 -208 0
64 -121 -124 208 0
-64 121 124 -208 0
-64 121 -124 208 0
-64 -121 124 208 0
-64 -121 -124 -208 0
96 189 195 243 0
96 189 -195 -243 0
96 -189 195 -243 0
96 -189 -195 243 0
-96 189 195 -243 0
-96 189 -195 243 0
-96 -189 195 243 0
-96 -189 -195 -243 0
34 213 240 -243 0
34 213 -240 243 0
34 -213 240 243 0
34 -213 -240 -243 0
-34 213 240 243 0
-34 213 -240 -243 0
-34 -213 240 -243 0
-34 -213 -240 243 0
146 193 199 -244 0
146 193 -199 244 0
146 -193 199 244 0
146 -193 -199 -244 0
-146 193 199 244 0
-146 193 -199 -244 0
-146 -193 199 -244 0
-146 -193 -199 244 0
102 157 161 -229 0
102 157 -161 229 0
102 -157 161 229 0
102 -157 -161 -229 0
-102 157 161 229 0
-102 157 -161 -229 0
-102 -157 161 -229 0
-102 -157 -161 229 0
103 215 237 -244 0
103 215 -237 244 0
103 -215 237 244 0
103 -215 -237 -244 0
-103 215 237 244 0
-103 215 -237 -244 0
-103 -215 237 -244 0
-103 -215 -237 244 0
45 48 142 230 0
45 48 -142 -230 0
45 -48 142 -230 0
45 -48 -142 230 0
-45 48 142 -230 0
-45 48 -142 230 0
-45 -48 142 230 0
-45 -48 -142 -230 0
162 200 223 -242 0
162 200 -223 242 0
162 -200 223 242 0
162 -200 -223 -242 0
-162 200 223 242 0
-162 200 -223 -242 0
-162 -200 223 -242 0
-162 -200 -223 242 0
71 88 136 -165 0
71 88 -136 165 0
71 -88 136 165 0
71 -88 -136 -165 0
-71 88 136 165 0
-71 88 -136 -165 0
-71 -88 136 -165 0
-71 -88 -136 165 0
23 169 227 241 0
23 169 -227 -241 0
23 -169 227 -241 0
23 -169 -227 241 0
-23 169 227 -241 0
-23 169 -227 241 0
-23 -169 227 241 0
-23 -169 -227 -241 0
65 72 132 -159 0
65 72 -132 159 0
65 -72 132 159 0
65 -72 -132 -159 0
-65 72 132 159 0
-65 72 -132 -159 0
-65 -72 132 -159 0
-65 -72 -132 159 0
